46647
1 1 1 1 1 0 1 1 1 1 1 1 1 0 1 1 1 1 1 1 1 1 1 1 1 1 1 1 1 1
9 17 1 4 11 3 8 6 6 25 9 4 10 14 2 11 7 16 16 6 16 16 4 25 16 18 7 22 3 14 4 21 7 3 2 16 7 24 26 20 1 12 8 1 22 22 3 10 0 19 3 19 26 4 26 28 29 9 14 15 12 27 22 25 15 21 18 2 24 10 18 22 19 25 22 15 16 20 2 14 14 25 8 12 20 22 15 7 24 15 15 7 27 8 4 17 2 29 14 3 6 23 27 11 27 19 9 23 12 9 25 20 9 1 28 11 20 6 11 3 0 26 2 18 21 11 21 21 28 2 23 25 14 27 16 26 0 23 19 1 2 17 6 18 6 19 28 8 18 18 8 11 16 22 4 24 0 24 12 7 19 8 28 15 11 26 10 10 16 22 2 14 24 20 12 28 2 14 27 4 26 4 28 22 28 11 27 4 8 20 22 8 26 20 23 10 4 1 27 8